# Objective value = 7958.82000000001
I_0_0 2675
I_0_1 3.4660000000000132e+03
I_0_2 2935
I_0_3 3.8409999999999777e+03
I_1_0 24
I_1_1 1.2000000000002112e+01
I_1_2 2.4000000000002114e+01
I_1_3 1.1999999999998941e+01
I_2_0 59
I_2_1 0
I_2_2 59
I_2_3 0
I_3_0 32
I_3_1 -1.6902035326893383e-11
I_3_2 32
I_3_3 0
I_4_0 99
I_4_1 0
I_4_2 99
I_4_3 0
I_5_0 178
I_5_1 89
I_5_2 178
I_5_3 89
I_6_0 78
I_6_1 39
I_6_2 78
I_6_3 39
I_7_0 15
I_7_1 1.5000000000000513e+01
I_7_2 15
I_7_3 0
I_8_0 55
I_8_1 0
I_8_2 55
I_8_3 0
I_9_0 21
I_9_1 0
I_9_2 2.1000000000000004e+01
I_9_3 0
I_10_0 184
I_10_1 184.000000000005
I_10_2 92.000000000005
I_10_3 -1.0022205287896213e-11
I_11_0 102
I_11_1 51
I_11_2 102
I_11_3 51
I_12_0 20
I_12_1 0
I_12_2 1.9999999999996479e+01
I_12_3 0
I_13_0 47
I_13_1 0
I_13_2 47
I_13_3 8.8817841970012523e-16
I_14_0 72
I_14_1 0
I_14_2 72
I_14_3 0
I_15_0 23
I_15_1 -4.0489139818689068e-12
I_15_2 2.2999999999995950e+01
I_15_3 4.0487613262030209e-12
I_16_0 86
I_16_1 43
I_16_2 8.5999999999999986e+01
I_16_3 4.2999999999999986e+01
I_17_0 142
I_17_1 71
I_17_2 142
I_17_3 7.1000000000018744e+01
I_18_0 176
I_18_1 176
I_18_2 88
I_18_3 0
I_19_0 80
I_19_1 80
I_19_2 0
I_19_3 80.0000000000105
I_20_0 116
I_20_1 58
I_20_2 116
I_20_3 58
q_1_0_0 0
q_1_0_1 24
q_1_0_2 0
q_1_1_0 2.1126433935592104e-12
q_1_1_1 0
q_1_1_2 -3.1694646906998969e-12
q_2_0_0 0
q_2_0_1 118
q_2_0_2 0
q_2_1_0 0
q_2_1_1 0
q_2_1_2 0
q_3_0_0 0
q_3_0_1 6.4000000000016911e+01
q_3_0_2 0
q_3_1_0 -1.6902035326893383e-11
q_3_1_1 0
q_3_1_2 0
q_4_0_0 0
q_4_0_1 198
q_4_0_2 0
q_4_1_0 0
q_4_1_1 0
q_4_1_2 0
q_5_0_0 0
q_5_0_1 0
q_5_0_2 0
q_5_1_0 0
q_5_1_1 178
q_5_1_2 0
q_6_0_0 0
q_6_0_1 0
q_6_0_2 0
q_6_1_0 0
q_6_1_1 78
q_6_1_2 0
q_7_0_0 1.5000000000000513e+01
q_7_0_1 0
q_7_0_2 0
q_7_1_0 0
q_7_1_1 15
q_7_1_2 0
q_8_0_0 0
q_8_0_1 110
q_8_0_2 0
q_8_1_0 0
q_8_1_1 0
q_8_1_2 0
q_9_0_0 0
q_9_0_1 42
q_9_0_2 0
q_9_1_0 0
q_9_1_1 0
q_9_1_2 0
q_10_0_0 92.000000000005
q_10_0_1 0
q_10_0_2 0
q_10_1_0 0
q_10_1_1 0
q_10_1_2 -1.5020873433968518e-11
q_11_0_0 0
q_11_0_1 0
q_11_0_2 0
q_11_1_0 0
q_11_1_1 102
q_11_1_2 0
q_12_0_0 0
q_12_0_1 40
q_12_0_2 3.5214053895060715e-12
q_12_1_0 0
q_12_1_1 -3.5214053895060715e-12
q_12_1_2 0
q_13_0_0 0
q_13_0_1 0
q_13_0_2 8.8817841970012523e-16
q_13_1_0 0
q_13_1_1 94
q_13_1_2 0
q_14_0_0 0
q_14_0_1 0
q_14_0_2 0
q_14_1_0 0
q_14_1_1 144
q_14_1_2 0
q_15_0_0 0
q_15_0_1 0
q_15_0_2 8.0975226524060417e-12
q_15_1_0 -4.0489139818689068e-12
q_15_1_1 46
q_15_1_2 0
q_16_0_0 0
q_16_0_1 8.5999999999999986e+01
q_16_0_2 0
q_16_1_0 0
q_16_1_1 0
q_16_1_2 0
q_17_0_0 0
q_17_0_1 0
q_17_0_2 1.8751222796709044e-11
q_17_1_0 0
q_17_1_1 142
q_17_1_2 0
q_18_0_0 88
q_18_0_1 0
q_18_0_2 0
q_18_1_0 0
q_18_1_1 0
q_18_1_2 0
q_19_0_0 80
q_19_0_1 0
q_19_0_2 160
q_19_1_0 0
q_19_1_1 0
q_19_1_2 1.0502008851548282e-11
q_20_0_0 0
q_20_0_1 116
q_20_0_2 0
q_20_1_0 0
q_20_1_1 0
q_20_1_2 0
y_0_0_0 1
y_0_0_1 1
y_0_0_2 1
y_0_1_0 0
y_0_1_1 1
y_0_1_2 -1.0810102812897071e-13
y_1_0_0 0
y_1_0_1 1
y_1_0_2 0
y_1_1_0 1.7605361612993420e-13
y_1_1_1 0
y_1_1_2 -8.8033746958871006e-14
y_2_0_0 0
y_2_0_1 1
y_2_0_2 0
y_2_1_0 0
y_2_1_1 0
y_2_1_2 0
y_3_0_0 0
y_3_0_1 1
y_3_0_2 0
y_3_1_0 -5.2818860396541822e-13
y_3_1_1 0
y_3_1_2 0
y_4_0_0 0
y_4_0_1 1
y_4_0_2 0
y_4_1_0 0
y_4_1_1 0
y_4_1_2 0
y_5_0_0 0
y_5_0_1 0
y_5_0_2 0
y_5_1_0 0
y_5_1_1 1
y_5_1_2 0
y_6_0_0 0
y_6_0_1 0
y_6_0_2 0
y_6_1_0 0
y_6_1_1 1
y_6_1_2 0
y_7_0_0 1.0000000000000342e+00
y_7_0_1 0
y_7_0_2 0
y_7_1_0 0
y_7_1_1 1
y_7_1_2 0
y_8_0_0 0
y_8_0_1 1
y_8_0_2 0
y_8_1_0 0
y_8_1_1 0
y_8_1_2 0
y_9_0_0 0
y_9_0_1 1
y_9_0_2 0
y_9_1_0 0
y_9_1_1 0
y_9_1_2 0
y_10_0_0 1.0000000000000544e+00
y_10_0_1 0
y_10_0_2 0
y_10_1_0 0
y_10_1_1 0
y_10_1_2 -5.4414805994440485e-14
y_11_0_0 0
y_11_0_1 0
y_11_0_2 0
y_11_1_0 0
y_11_1_1 1
y_11_1_2 0
y_12_0_0 0
y_12_0_1 1
y_12_0_2 8.8033746958871006e-14
y_12_1_0 0
y_12_1_1 0
y_12_1_2 0
y_13_0_0 0
y_13_0_1 0
y_13_0_2 0
y_13_1_0 0
y_13_1_1 1
y_13_1_2 0
y_14_0_0 0
y_14_0_1 0
y_14_0_2 -8.8033746958871006e-14
y_14_1_0 0
y_14_1_1 1
y_14_1_2 0
y_15_0_0 0
y_15_0_1 0
y_15_0_2 1.7603973834212638e-13
y_15_1_0 -1.7603973834212638e-13
y_15_1_1 1
y_15_1_2 0
y_16_0_0 0
y_16_0_1 9.9999999999999989e-01
y_16_0_2 0
y_16_1_0 0
y_16_1_1 0
y_16_1_2 0
y_17_0_0 0
y_17_0_1 0
y_17_0_2 8.8033746958871006e-14
y_17_1_0 0
y_17_1_1 1
y_17_1_2 0
y_18_0_0 1
y_18_0_1 0
y_18_0_2 0
y_18_1_0 0
y_18_1_1 0
y_18_1_2 0
y_19_0_0 1
y_19_0_1 0
y_19_0_2 1
y_19_1_0 0
y_19_1_1 0
y_19_1_2 0
y_20_0_0 0
y_20_0_1 1
y_20_0_2 0
y_20_1_0 0
y_20_1_1 0
y_20_1_2 0
x_0_1_0_0 0
x_0_1_0_1 0
x_0_1_0_2 0
x_0_1_1_0 0
x_0_1_1_1 0
x_0_1_1_2 0
x_0_2_0_0 0
x_0_2_0_1 0
x_0_2_0_2 0
x_0_2_1_0 0
x_0_2_1_1 0
x_0_2_1_2 0
x_0_3_0_0 0
x_0_3_0_1 0
x_0_3_0_2 0
x_0_3_1_0 0
x_0_3_1_1 0
x_0_3_1_2 0
x_0_4_0_0 0
x_0_4_0_1 0
x_0_4_0_2 0
x_0_4_1_0 0
x_0_4_1_1 0
x_0_4_1_2 0
x_0_5_0_0 0
x_0_5_0_1 0
x_0_5_0_2 0
x_0_5_1_0 0
x_0_5_1_1 0
x_0_5_1_2 0
x_0_6_0_0 0
x_0_6_0_1 0
x_0_6_0_2 0
x_0_6_1_0 0
x_0_6_1_1 0
x_0_6_1_2 0
x_0_7_0_0 0
x_0_7_0_1 0
x_0_7_0_2 0
x_0_7_1_0 0
x_0_7_1_1 1.0000000000000002e+00
x_0_7_1_2 0
x_0_8_0_0 0
x_0_8_0_1 0
x_0_8_0_2 0
x_0_8_1_0 0
x_0_8_1_1 0
x_0_8_1_2 0
x_0_9_0_0 0
x_0_9_0_1 0
x_0_9_0_2 0
x_0_9_1_0 0
x_0_9_1_1 0
x_0_9_1_2 0
x_0_10_0_0 1.0000000000000744e+00
x_0_10_0_1 0
x_0_10_0_2 0
x_0_10_1_0 0
x_0_10_1_1 0
x_0_10_1_2 -4.0162317915815038e-14
x_0_11_0_0 0
x_0_11_0_1 0
x_0_11_0_2 0
x_0_11_1_0 0
x_0_11_1_1 0
x_0_11_1_2 0
x_0_12_0_0 0
x_0_12_0_1 1.0000000000000004e+00
x_0_12_0_2 0
x_0_12_1_0 0
x_0_12_1_1 0
x_0_12_1_2 0
x_0_13_0_0 0
x_0_13_0_1 0
x_0_13_0_2 0
x_0_13_1_0 0
x_0_13_1_1 1
x_0_13_1_2 0
x_0_14_0_0 0
x_0_14_0_1 0
x_0_14_0_2 0
x_0_14_1_0 0
x_0_14_1_1 0
x_0_14_1_2 0
x_0_15_0_0 0
x_0_15_0_1 0
x_0_15_0_2 0
x_0_15_1_0 0
x_0_15_1_1 0
x_0_15_1_2 0
x_0_16_0_0 0
x_0_16_0_1 9.9999999999999956e-01
x_0_16_0_2 0
x_0_16_1_0 0
x_0_16_1_1 0
x_0_16_1_2 0
x_0_17_0_0 0
x_0_17_0_1 0
x_0_17_0_2 0
x_0_17_1_0 4.1633363423443370e-17
x_0_17_1_1 0
x_0_17_1_2 0
x_0_18_0_0 9.9999999999998024e-01
x_0_18_0_1 0
x_0_18_0_2 0
x_0_18_1_0 0
x_0_18_1_1 0
x_0_18_1_2 0
x_0_19_0_0 -5.4629911705461609e-14
x_0_19_0_1 0
x_0_19_0_2 2
x_0_19_1_0 0
x_0_19_1_1 0
x_0_19_1_2 -1.7606749391774201e-13
x_0_20_0_0 0
x_0_20_0_1 0
x_0_20_0_2 0
x_0_20_1_0 0
x_0_20_1_1 0
x_0_20_1_2 0
x_1_2_0_0 0
x_1_2_0_1 9.9999999999999989e-01
x_1_2_0_2 0
x_1_2_1_0 0
x_1_2_1_1 0
x_1_2_1_2 0
x_1_3_0_0 0
x_1_3_0_1 0
x_1_3_0_2 0
x_1_3_1_0 0
x_1_3_1_1 0
x_1_3_1_2 0
x_1_4_0_0 0
x_1_4_0_1 0
x_1_4_0_2 0
x_1_4_1_0 0
x_1_4_1_1 0
x_1_4_1_2 0
x_1_5_0_0 0
x_1_5_0_1 0
x_1_5_0_2 0
x_1_5_1_0 0
x_1_5_1_1 0
x_1_5_1_2 0
x_1_6_0_0 0
x_1_6_0_1 0
x_1_6_0_2 8.8040685852774914e-14
x_1_6_1_0 3.5210723225986840e-13
x_1_6_1_1 0
x_1_6_1_2 0
x_1_7_0_0 0
x_1_7_0_1 0
x_1_7_0_2 0
x_1_7_1_0 0
x_1_7_1_1 0
x_1_7_1_2 0
x_1_8_0_0 0
x_1_8_0_1 1
x_1_8_0_2 0
x_1_8_1_0 0
x_1_8_1_1 0
x_1_8_1_2 0
x_1_9_0_0 0
x_1_9_0_1 0
x_1_9_0_2 0
x_1_9_1_0 0
x_1_9_1_1 0
x_1_9_1_2 0
x_1_10_0_0 0
x_1_10_0_1 0
x_1_10_0_2 0
x_1_10_1_0 0
x_1_10_1_1 0
x_1_10_1_2 0
x_1_11_0_0 0
x_1_11_0_1 0
x_1_11_0_2 0
x_1_11_1_0 0
x_1_11_1_1 0
x_1_11_1_2 0
x_1_12_0_0 0
x_1_12_0_1 0
x_1_12_0_2 -8.8040685852774914e-14
x_1_12_1_0 0
x_1_12_1_1 0
x_1_12_1_2 0
x_1_13_0_0 0
x_1_13_0_1 0
x_1_13_0_2 0
x_1_13_1_0 0
x_1_13_1_1 0
x_1_13_1_2 0
x_1_14_0_0 0
x_1_14_0_1 0
x_1_14_0_2 0
x_1_14_1_0 0
x_1_14_1_1 0
x_1_14_1_2 0
x_1_15_0_0 0
x_1_15_0_1 0
x_1_15_0_2 0
x_1_15_1_0 0
x_1_15_1_1 0
x_1_15_1_2 0
x_1_16_0_0 0
x_1_16_0_1 0
x_1_16_0_2 0
x_1_16_1_0 0
x_1_16_1_1 0
x_1_16_1_2 -1.7606749391774201e-13
x_1_17_0_0 0
x_1_17_0_1 0
x_1_17_0_2 0
x_1_17_1_0 0
x_1_17_1_1 0
x_1_17_1_2 0
x_1_18_0_0 0
x_1_18_0_1 0
x_1_18_0_2 0
x_1_18_1_0 0
x_1_18_1_1 0
x_1_18_1_2 0
x_1_19_0_0 0
x_1_19_0_1 0
x_1_19_0_2 0
x_1_19_1_0 0
x_1_19_1_1 0
x_1_19_1_2 0
x_1_20_0_0 0
x_1_20_0_1 0
x_1_20_0_2 0
x_1_20_1_0 0
x_1_20_1_1 0
x_1_20_1_2 0
x_2_3_0_0 0
x_2_3_0_1 0
x_2_3_0_2 0
x_2_3_1_0 0
x_2_3_1_1 0
x_2_3_1_2 0
x_2_4_0_0 0
x_2_4_0_1 1.0000000000000002e+00
x_2_4_0_2 0
x_2_4_1_0 0
x_2_4_1_1 0
x_2_4_1_2 0
x_2_5_0_0 0
x_2_5_0_1 0
x_2_5_0_2 0
x_2_5_1_0 0
x_2_5_1_1 0
x_2_5_1_2 0
x_2_6_0_0 0
x_2_6_0_1 0
x_2_6_0_2 0
x_2_6_1_0 0
x_2_6_1_1 0
x_2_6_1_2 0
x_2_7_0_0 0
x_2_7_0_1 0
x_2_7_0_2 0
x_2_7_1_0 0
x_2_7_1_1 0
x_2_7_1_2 0
x_2_8_0_0 0
x_2_8_0_1 0
x_2_8_0_2 0
x_2_8_1_0 0
x_2_8_1_1 0
x_2_8_1_2 0
x_2_9_0_0 0
x_2_9_0_1 0
x_2_9_0_2 0
x_2_9_1_0 0
x_2_9_1_1 0
x_2_9_1_2 0
x_2_10_0_0 0
x_2_10_0_1 0
x_2_10_0_2 0
x_2_10_1_0 0
x_2_10_1_1 0
x_2_10_1_2 0
x_2_11_0_0 0
x_2_11_0_1 0
x_2_11_0_2 0
x_2_11_1_0 0
x_2_11_1_1 0
x_2_11_1_2 0
x_2_12_0_0 0
x_2_12_0_1 0
x_2_12_0_2 0
x_2_12_1_0 0
x_2_12_1_1 0
x_2_12_1_2 0
x_2_13_0_0 0
x_2_13_0_1 0
x_2_13_0_2 0
x_2_13_1_0 0
x_2_13_1_1 0
x_2_13_1_2 0
x_2_14_0_0 0
x_2_14_0_1 0
x_2_14_0_2 0
x_2_14_1_0 0
x_2_14_1_1 0
x_2_14_1_2 0
x_2_15_0_0 0
x_2_15_0_1 0
x_2_15_0_2 0
x_2_15_1_0 0
x_2_15_1_1 0
x_2_15_1_2 0
x_2_16_0_0 0
x_2_16_0_1 0
x_2_16_0_2 0
x_2_16_1_0 0
x_2_16_1_1 0
x_2_16_1_2 0
x_2_17_0_0 0
x_2_17_0_1 0
x_2_17_0_2 0
x_2_17_1_0 0
x_2_17_1_1 0
x_2_17_1_2 0
x_2_18_0_0 0
x_2_18_0_1 0
x_2_18_0_2 0
x_2_18_1_0 0
x_2_18_1_1 0
x_2_18_1_2 0
x_2_19_0_0 0
x_2_19_0_1 0
x_2_19_0_2 0
x_2_19_1_0 0
x_2_19_1_1 0
x_2_19_1_2 0
x_2_20_0_0 0
x_2_20_0_1 0
x_2_20_0_2 0
x_2_20_1_0 0
x_2_20_1_1 0
x_2_20_1_2 0
x_3_4_0_0 0
x_3_4_0_1 0
x_3_4_0_2 0
x_3_4_1_0 0
x_3_4_1_1 0
x_3_4_1_2 0
x_3_5_0_0 0
x_3_5_0_1 0
x_3_5_0_2 -8.8012930277159285e-14
x_3_5_1_0 0
x_3_5_1_1 0
x_3_5_1_2 0
x_3_6_0_0 0
x_3_6_0_1 0
x_3_6_0_2 8.8040685852774914e-14
x_3_6_1_0 -7.0421446451973679e-13
x_3_6_1_1 0
x_3_6_1_2 0
x_3_7_0_0 0
x_3_7_0_1 0
x_3_7_0_2 0
x_3_7_1_0 0
x_3_7_1_1 0
x_3_7_1_2 0
x_3_8_0_0 0
x_3_8_0_1 0
x_3_8_0_2 0
x_3_8_1_0 0
x_3_8_1_1 0
x_3_8_1_2 0
x_3_9_0_0 0
x_3_9_0_1 1
x_3_9_0_2 0
x_3_9_1_0 0
x_3_9_1_1 0
x_3_9_1_2 0
x_3_10_0_0 0
x_3_10_0_1 0
x_3_10_0_2 0
x_3_10_1_0 0
x_3_10_1_1 0
x_3_10_1_2 0
x_3_11_0_0 0
x_3_11_0_1 0
x_3_11_0_2 0
x_3_11_1_0 0
x_3_11_1_1 0
x_3_11_1_2 0
x_3_12_0_0 0
x_3_12_0_1 1
x_3_12_0_2 1.7605361612993420e-13
x_3_12_1_0 0
x_3_12_1_1 0
x_3_12_1_2 0
x_3_13_0_0 0
x_3_13_0_1 0
x_3_13_0_2 0
x_3_13_1_0 0
x_3_13_1_1 0
x_3_13_1_2 0
x_3_14_0_0 0
x_3_14_0_1 0
x_3_14_0_2 -1.7606749391774201e-13
x_3_14_1_0 0
x_3_14_1_1 0
x_3_14_1_2 0
x_3_15_0_0 0
x_3_15_0_1 0
x_3_15_0_2 0
x_3_15_1_0 -3.5207947668425277e-13
x_3_15_1_1 0
x_3_15_1_2 0
x_3_16_0_0 0
x_3_16_0_1 0
x_3_16_0_2 0
x_3_16_1_0 0
x_3_16_1_1 0
x_3_16_1_2 0
x_3_17_0_0 0
x_3_17_0_1 0
x_3_17_0_2 0
x_3_17_1_0 0
x_3_17_1_1 0
x_3_17_1_2 0
x_3_18_0_0 0
x_3_18_0_1 0
x_3_18_0_2 0
x_3_18_1_0 0
x_3_18_1_1 0
x_3_18_1_2 0
x_3_19_0_0 0
x_3_19_0_1 0
x_3_19_0_2 0
x_3_19_1_0 0
x_3_19_1_1 0
x_3_19_1_2 0
x_3_20_0_0 0
x_3_20_0_1 0
x_3_20_0_2 0
x_3_20_1_0 0
x_3_20_1_1 0
x_3_20_1_2 0
x_4_5_0_0 0
x_4_5_0_1 0
x_4_5_0_2 0
x_4_5_1_0 0
x_4_5_1_1 0
x_4_5_1_2 0
x_4_6_0_0 0
x_4_6_0_1 0
x_4_6_0_2 0
x_4_6_1_0 0
x_4_6_1_1 0
x_4_6_1_2 0
x_4_7_0_0 0
x_4_7_0_1 0
x_4_7_0_2 0
x_4_7_1_0 0
x_4_7_1_1 0
x_4_7_1_2 0
x_4_8_0_0 0
x_4_8_0_1 0
x_4_8_0_2 0
x_4_8_1_0 0
x_4_8_1_1 0
x_4_8_1_2 0
x_4_9_0_0 0
x_4_9_0_1 0
x_4_9_0_2 0
x_4_9_1_0 0
x_4_9_1_1 0
x_4_9_1_2 0
x_4_10_0_0 0
x_4_10_0_1 0
x_4_10_0_2 0
x_4_10_1_0 0
x_4_10_1_1 0
x_4_10_1_2 0
x_4_11_0_0 0
x_4_11_0_1 0
x_4_11_0_2 0
x_4_11_1_0 0
x_4_11_1_1 0
x_4_11_1_2 0
x_4_12_0_0 0
x_4_12_0_1 0
x_4_12_0_2 0
x_4_12_1_0 0
x_4_12_1_1 0
x_4_12_1_2 0
x_4_13_0_0 0
x_4_13_0_1 0
x_4_13_0_2 0
x_4_13_1_0 0
x_4_13_1_1 0
x_4_13_1_2 0
x_4_14_0_0 0
x_4_14_0_1 0
x_4_14_0_2 0
x_4_14_1_0 0
x_4_14_1_1 0
x_4_14_1_2 0
x_4_15_0_0 0
x_4_15_0_1 0
x_4_15_0_2 0
x_4_15_1_0 0
x_4_15_1_1 0
x_4_15_1_2 0
x_4_16_0_0 0
x_4_16_0_1 0
x_4_16_0_2 0
x_4_16_1_0 0
x_4_16_1_1 0
x_4_16_1_2 0
x_4_17_0_0 0
x_4_17_0_1 0
x_4_17_0_2 0
x_4_17_1_0 0
x_4_17_1_1 0
x_4_17_1_2 0
x_4_18_0_0 0
x_4_18_0_1 0
x_4_18_0_2 0
x_4_18_1_0 0
x_4_18_1_1 0
x_4_18_1_2 0
x_4_19_0_0 0
x_4_19_0_1 0
x_4_19_0_2 0
x_4_19_1_0 0
x_4_19_1_1 0
x_4_19_1_2 0
x_4_20_0_0 0
x_4_20_0_1 1
x_4_20_0_2 0
x_4_20_1_0 0
x_4_20_1_1 0
x_4_20_1_2 0
x_5_6_0_0 0
x_5_6_0_1 0
x_5_6_0_2 0
x_5_6_1_0 0
x_5_6_1_1 0
x_5_6_1_2 0
x_5_7_0_0 0
x_5_7_0_1 0
x_5_7_0_2 0
x_5_7_1_0 0
x_5_7_1_1 0
x_5_7_1_2 0
x_5_8_0_0 0
x_5_8_0_1 0
x_5_8_0_2 0
x_5_8_1_0 0
x_5_8_1_1 0
x_5_8_1_2 0
x_5_9_0_0 0
x_5_9_0_1 0
x_5_9_0_2 0
x_5_9_1_0 0
x_5_9_1_1 0
x_5_9_1_2 0
x_5_10_0_0 0
x_5_10_0_1 0
x_5_10_0_2 0
x_5_10_1_0 0
x_5_10_1_1 0
x_5_10_1_2 0
x_5_11_0_0 0
x_5_11_0_1 0
x_5_11_0_2 0
x_5_11_1_0 0
x_5_11_1_1 1
x_5_11_1_2 0
x_5_12_0_0 0
x_5_12_0_1 0
x_5_12_0_2 0
x_5_12_1_0 0
x_5_12_1_1 0
x_5_12_1_2 0
x_5_13_0_0 0
x_5_13_0_1 0
x_5_13_0_2 1.3877787807814457e-17
x_5_13_1_0 0
x_5_13_1_1 0
x_5_13_1_2 0
x_5_14_0_0 0
x_5_14_0_1 0
x_5_14_0_2 -8.8040685852774914e-14
x_5_14_1_0 -1.7603973834212638e-13
x_5_14_1_1 1
x_5_14_1_2 0
x_5_15_0_0 0
x_5_15_0_1 0
x_5_15_0_2 1.7603973834212638e-13
x_5_15_1_0 0
x_5_15_1_1 0
x_5_15_1_2 0
x_5_16_0_0 0
x_5_16_0_1 0
x_5_16_0_2 0
x_5_16_1_0 0
x_5_16_1_1 0
x_5_16_1_2 0
x_5_17_0_0 0
x_5_17_0_1 0
x_5_17_0_2 0
x_5_17_1_0 1.7603973834212638e-13
x_5_17_1_1 0
x_5_17_1_2 0
x_5_18_0_0 0
x_5_18_0_1 0
x_5_18_0_2 0
x_5_18_1_0 0
x_5_18_1_1 0
x_5_18_1_2 0
x_5_19_0_0 0
x_5_19_0_1 0
x_5_19_0_2 0
x_5_19_1_0 0
x_5_19_1_1 0
x_5_19_1_2 0
x_5_20_0_0 0
x_5_20_0_1 0
x_5_20_0_2 0
x_5_20_1_0 0
x_5_20_1_1 0
x_5_20_1_2 0
x_6_7_0_0 0
x_6_7_0_1 0
x_6_7_0_2 0
x_6_7_1_0 0
x_6_7_1_1 0
x_6_7_1_2 0
x_6_8_0_0 0
x_6_8_0_1 0
x_6_8_0_2 -8.8040685852774914e-14
x_6_8_1_0 0
x_6_8_1_1 0
x_6_8_1_2 0
x_6_9_0_0 0
x_6_9_0_1 0
x_6_9_0_2 -8.8040685852774914e-14
x_6_9_1_0 0
x_6_9_1_1 0
x_6_9_1_2 0
x_6_10_0_0 0
x_6_10_0_1 0
x_6_10_0_2 0
x_6_10_1_0 0
x_6_10_1_1 0
x_6_10_1_2 0
x_6_11_0_0 0
x_6_11_0_1 0
x_6_11_0_2 0
x_6_11_1_0 0
x_6_11_1_1 0
x_6_11_1_2 0
x_6_12_0_0 0
x_6_12_0_1 0
x_6_12_0_2 0
x_6_12_1_0 1.7608137170554983e-13
x_6_12_1_1 0
x_6_12_1_2 0
x_6_13_0_0 0
x_6_13_0_1 0
x_6_13_0_2 0
x_6_13_1_0 0
x_6_13_1_1 1
x_6_13_1_2 0
x_6_14_0_0 0
x_6_14_0_1 0
x_6_14_0_2 0
x_6_14_1_0 1.7603973834212638e-13
x_6_14_1_1 0
x_6_14_1_2 0
x_6_15_0_0 0
x_6_15_0_1 0
x_6_15_0_2 0
x_6_15_1_0 0
x_6_15_1_1 1
x_6_15_1_2 0
x_6_16_0_0 0
x_6_16_0_1 0
x_6_16_0_2 0
x_6_16_1_0 0
x_6_16_1_1 0
x_6_16_1_2 0
x_6_17_0_0 0
x_6_17_0_1 0
x_6_17_0_2 0
x_6_17_1_0 0
x_6_17_1_1 0
x_6_17_1_2 0
x_6_18_0_0 0
x_6_18_0_1 0
x_6_18_0_2 0
x_6_18_1_0 0
x_6_18_1_1 0
x_6_18_1_2 0
x_6_19_0_0 0
x_6_19_0_1 0
x_6_19_0_2 0
x_6_19_1_0 0
x_6_19_1_1 0
x_6_19_1_2 0
x_6_20_0_0 0
x_6_20_0_1 0
x_6_20_0_2 0
x_6_20_1_0 0
x_6_20_1_1 0
x_6_20_1_2 0
x_7_8_0_0 0
x_7_8_0_1 0
x_7_8_0_2 0
x_7_8_1_0 0
x_7_8_1_1 0
x_7_8_1_2 0
x_7_9_0_0 0
x_7_9_0_1 0
x_7_9_0_2 0
x_7_9_1_0 0
x_7_9_1_1 0
x_7_9_1_2 0
x_7_10_0_0 1.0000000000000344e+00
x_7_10_0_1 0
x_7_10_0_2 0
x_7_10_1_0 0
x_7_10_1_1 0
x_7_10_1_2 0
x_7_11_0_0 0
x_7_11_0_1 0
x_7_11_0_2 0
x_7_11_1_0 0
x_7_11_1_1 0
x_7_11_1_2 0
x_7_12_0_0 0
x_7_12_0_1 0
x_7_12_0_2 0
x_7_12_1_0 0
x_7_12_1_1 0
x_7_12_1_2 0
x_7_13_0_0 0
x_7_13_0_1 0
x_7_13_0_2 0
x_7_13_1_0 0
x_7_13_1_1 0
x_7_13_1_2 0
x_7_14_0_0 0
x_7_14_0_1 0
x_7_14_0_2 0
x_7_14_1_0 0
x_7_14_1_1 0
x_7_14_1_2 0
x_7_15_0_0 0
x_7_15_0_1 0
x_7_15_0_2 0
x_7_15_1_0 0
x_7_15_1_1 0
x_7_15_1_2 0
x_7_16_0_0 0
x_7_16_0_1 0
x_7_16_0_2 0
x_7_16_1_0 0
x_7_16_1_1 0
x_7_16_1_2 0
x_7_17_0_0 0
x_7_17_0_1 0
x_7_17_0_2 0
x_7_17_1_0 0
x_7_17_1_1 1
x_7_17_1_2 0
x_7_18_0_0 0
x_7_18_0_1 0
x_7_18_0_2 0
x_7_18_1_0 0
x_7_18_1_1 0
x_7_18_1_2 0
x_7_19_0_0 1.0000000000000342e+00
x_7_19_0_1 0
x_7_19_0_2 0
x_7_19_1_0 0
x_7_19_1_1 0
x_7_19_1_2 0
x_7_20_0_0 0
x_7_20_0_1 0
x_7_20_0_2 0
x_7_20_1_0 0
x_7_20_1_1 0
x_7_20_1_2 0
x_8_9_0_0 0
x_8_9_0_1 1
x_8_9_0_2 8.8040685852774914e-14
x_8_9_1_0 0
x_8_9_1_1 0
x_8_9_1_2 0
x_8_10_0_0 0
x_8_10_0_1 0
x_8_10_0_2 0
x_8_10_1_0 0
x_8_10_1_1 0
x_8_10_1_2 0
x_8_11_0_0 0
x_8_11_0_1 0
x_8_11_0_2 0
x_8_11_1_0 0
x_8_11_1_1 0
x_8_11_1_2 0
x_8_12_0_0 0
x_8_12_0_1 0
x_8_12_0_2 0
x_8_12_1_0 0
x_8_12_1_1 0
x_8_12_1_2 0
x_8_13_0_0 0
x_8_13_0_1 0
x_8_13_0_2 0
x_8_13_1_0 0
x_8_13_1_1 0
x_8_13_1_2 0
x_8_14_0_0 0
x_8_14_0_1 0
x_8_14_0_2 0
x_8_14_1_0 0
x_8_14_1_1 0
x_8_14_1_2 0
x_8_15_0_0 0
x_8_15_0_1 0
x_8_15_0_2 0
x_8_15_1_0 0
x_8_15_1_1 0
x_8_15_1_2 0
x_8_16_0_0 0
x_8_16_0_1 0
x_8_16_0_2 0
x_8_16_1_0 0
x_8_16_1_1 0
x_8_16_1_2 0
x_8_17_0_0 0
x_8_17_0_1 0
x_8_17_0_2 0
x_8_17_1_0 0
x_8_17_1_1 0
x_8_17_1_2 0
x_8_18_0_0 0
x_8_18_0_1 0
x_8_18_0_2 0
x_8_18_1_0 0
x_8_18_1_1 0
x_8_18_1_2 0
x_8_19_0_0 0
x_8_19_0_1 0
x_8_19_0_2 0
x_8_19_1_0 0
x_8_19_1_1 0
x_8_19_1_2 0
x_8_20_0_0 0
x_8_20_0_1 0
x_8_20_0_2 0
x_8_20_1_0 0
x_8_20_1_1 0
x_8_20_1_2 0
x_9_10_0_0 0
x_9_10_0_1 0
x_9_10_0_2 0
x_9_10_1_0 0
x_9_10_1_1 0
x_9_10_1_2 0
x_9_11_0_0 0
x_9_11_0_1 0
x_9_11_0_2 0
x_9_11_1_0 0
x_9_11_1_1 0
x_9_11_1_2 0
x_9_12_0_0 0
x_9_12_0_1 0
x_9_12_0_2 0
x_9_12_1_0 0
x_9_12_1_1 0
x_9_12_1_2 0
x_9_13_0_0 0
x_9_13_0_1 0
x_9_13_0_2 0
x_9_13_1_0 0
x_9_13_1_1 0
x_9_13_1_2 0
x_9_14_0_0 0
x_9_14_0_1 0
x_9_14_0_2 0
x_9_14_1_0 0
x_9_14_1_1 0
x_9_14_1_2 0
x_9_15_0_0 0
x_9_15_0_1 0
x_9_15_0_2 0
x_9_15_1_0 0
x_9_15_1_1 0
x_9_15_1_2 0
x_9_16_0_0 0
x_9_16_0_1 0
x_9_16_0_2 0
x_9_16_1_0 0
x_9_16_1_1 0
x_9_16_1_2 0
x_9_17_0_0 0
x_9_17_0_1 0
x_9_17_0_2 0
x_9_17_1_0 0
x_9_17_1_1 0
x_9_17_1_2 0
x_9_18_0_0 0
x_9_18_0_1 0
x_9_18_0_2 0
x_9_18_1_0 0
x_9_18_1_1 0
x_9_18_1_2 0
x_9_19_0_0 0
x_9_19_0_1 0
x_9_19_0_2 0
x_9_19_1_0 0
x_9_19_1_1 0
x_9_19_1_2 0
x_9_20_0_0 0
x_9_20_0_1 0
x_9_20_0_2 0
x_9_20_1_0 0
x_9_20_1_1 0
x_9_20_1_2 0
x_10_11_0_0 0
x_10_11_0_1 0
x_10_11_0_2 0
x_10_11_1_0 0
x_10_11_1_1 0
x_10_11_1_2 0
x_10_12_0_0 0
x_10_12_0_1 0
x_10_12_0_2 0
x_10_12_1_0 0
x_10_12_1_1 0
x_10_12_1_2 0
x_10_13_0_0 0
x_10_13_0_1 0
x_10_13_0_2 0
x_10_13_1_0 0
x_10_13_1_1 0
x_10_13_1_2 0
x_10_14_0_0 0
x_10_14_0_1 0
x_10_14_0_2 0
x_10_14_1_0 0
x_10_14_1_1 0
x_10_14_1_2 0
x_10_15_0_0 0
x_10_15_0_1 0
x_10_15_0_2 0
x_10_15_1_0 0
x_10_15_1_1 0
x_10_15_1_2 0
x_10_16_0_0 0
x_10_16_0_1 0
x_10_16_0_2 -8.8033746958871006e-14
x_10_16_1_0 0
x_10_16_1_1 0
x_10_16_1_2 0
x_10_17_0_0 0
x_10_17_0_1 0
x_10_17_0_2 8.8033746958871006e-14
x_10_17_1_0 0
x_10_17_1_1 0
x_10_17_1_2 0
x_10_18_0_0 0
x_10_18_0_1 0
x_10_18_0_2 0
x_10_18_1_0 0
x_10_18_1_1 0
x_10_18_1_2 0
x_10_19_0_0 0
x_10_19_0_1 0
x_10_19_0_2 0
x_10_19_1_0 0
x_10_19_1_1 0
x_10_19_1_2 0
x_10_20_0_0 0
x_10_20_0_1 0
x_10_20_0_2 0
x_10_20_1_0 0
x_10_20_1_1 0
x_10_20_1_2 0
x_11_12_0_0 0
x_11_12_0_1 0
x_11_12_0_2 0
x_11_12_1_0 0
x_11_12_1_1 0
x_11_12_1_2 0
x_11_13_0_0 0
x_11_13_0_1 0
x_11_13_0_2 0
x_11_13_1_0 0
x_11_13_1_1 0
x_11_13_1_2 0
x_11_14_0_0 0
x_11_14_0_1 0
x_11_14_0_2 -8.8005991383255378e-14
x_11_14_1_0 0
x_11_14_1_1 0
x_11_14_1_2 0
x_11_15_0_0 0
x_11_15_0_1 0
x_11_15_0_2 0
x_11_15_1_0 0
x_11_15_1_1 0
x_11_15_1_2 0
x_11_16_0_0 0
x_11_16_0_1 0
x_11_16_0_2 0
x_11_16_1_0 0
x_11_16_1_1 0
x_11_16_1_2 0
x_11_17_0_0 0
x_11_17_0_1 0
x_11_17_0_2 8.8033746958871006e-14
x_11_17_1_0 0
x_11_17_1_1 1.0000000000000002e+00
x_11_17_1_2 0
x_11_18_0_0 0
x_11_18_0_1 0
x_11_18_0_2 0
x_11_18_1_0 0
x_11_18_1_1 0
x_11_18_1_2 0
x_11_19_0_0 0
x_11_19_0_1 0
x_11_19_0_2 0
x_11_19_1_0 0
x_11_19_1_1 0
x_11_19_1_2 0
x_11_20_0_0 0
x_11_20_0_1 0
x_11_20_0_2 0
x_11_20_1_0 0
x_11_20_1_1 0
x_11_20_1_2 0
x_12_13_0_0 0
x_12_13_0_1 0
x_12_13_0_2 0
x_12_13_1_0 0
x_12_13_1_1 0
x_12_13_1_2 0
x_12_14_0_0 0
x_12_14_0_1 0
x_12_14_0_2 0
x_12_14_1_0 0
x_12_14_1_1 0
x_12_14_1_2 0
x_12_15_0_0 0
x_12_15_0_1 0
x_12_15_0_2 0
x_12_15_1_0 0
x_12_15_1_1 0
x_12_15_1_2 0
x_12_16_0_0 0
x_12_16_0_1 0
x_12_16_0_2 8.8033746958871006e-14
x_12_16_1_0 0
x_12_16_1_1 0
x_12_16_1_2 0
x_12_17_0_0 0
x_12_17_0_1 0
x_12_17_0_2 0
x_12_17_1_0 -1.7608137170554983e-13
x_12_17_1_1 0
x_12_17_1_2 0
x_12_18_0_0 0
x_12_18_0_1 0
x_12_18_0_2 0
x_12_18_1_0 0
x_12_18_1_1 0
x_12_18_1_2 0
x_12_19_0_0 0
x_12_19_0_1 0
x_12_19_0_2 0
x_12_19_1_0 0
x_12_19_1_1 0
x_12_19_1_2 0
x_12_20_0_0 0
x_12_20_0_1 0
x_12_20_0_2 0
x_12_20_1_0 0
x_12_20_1_1 0
x_12_20_1_2 0
x_13_14_0_0 0
x_13_14_0_1 0
x_13_14_0_2 0
x_13_14_1_0 0
x_13_14_1_1 0
x_13_14_1_2 0
x_13_15_0_0 0
x_13_15_0_1 0
x_13_15_0_2 0
x_13_15_1_0 0
x_13_15_1_1 0
x_13_15_1_2 0
x_13_16_0_0 0
x_13_16_0_1 0
x_13_16_0_2 0
x_13_16_1_0 0
x_13_16_1_1 0
x_13_16_1_2 0
x_13_17_0_0 0
x_13_17_0_1 0
x_13_17_0_2 0
x_13_17_1_0 0
x_13_17_1_1 0
x_13_17_1_2 0
x_13_18_0_0 0
x_13_18_0_1 0
x_13_18_0_2 0
x_13_18_1_0 0
x_13_18_1_1 0
x_13_18_1_2 0
x_13_19_0_0 0
x_13_19_0_1 0
x_13_19_0_2 0
x_13_19_1_0 0
x_13_19_1_1 0
x_13_19_1_2 0
x_13_20_0_0 0
x_13_20_0_1 0
x_13_20_0_2 0
x_13_20_1_0 0
x_13_20_1_1 0
x_13_20_1_2 0
x_14_15_0_0 0
x_14_15_0_1 0
x_14_15_0_2 1.7603973834212638e-13
x_14_15_1_0 0
x_14_15_1_1 1
x_14_15_1_2 0
x_14_16_0_0 0
x_14_16_0_1 0
x_14_16_0_2 0
x_14_16_1_0 0
x_14_16_1_1 0
x_14_16_1_2 0
x_14_17_0_0 0
x_14_17_0_1 0
x_14_17_0_2 0
x_14_17_1_0 0
x_14_17_1_1 0
x_14_17_1_2 0
x_14_18_0_0 0
x_14_18_0_1 0
x_14_18_0_2 0
x_14_18_1_0 0
x_14_18_1_1 0
x_14_18_1_2 0
x_14_19_0_0 0
x_14_19_0_1 0
x_14_19_0_2 0
x_14_19_1_0 0
x_14_19_1_1 0
x_14_19_1_2 0
x_14_20_0_0 0
x_14_20_0_1 0
x_14_20_0_2 0
x_14_20_1_0 0
x_14_20_1_1 0
x_14_20_1_2 0
x_15_16_0_0 0
x_15_16_0_1 0
x_15_16_0_2 0
x_15_16_1_0 0
x_15_16_1_1 0
x_15_16_1_2 0
x_15_17_0_0 0
x_15_17_0_1 0
x_15_17_0_2 0
x_15_17_1_0 0
x_15_17_1_1 0
x_15_17_1_2 0
x_15_18_0_0 0
x_15_18_0_1 0
x_15_18_0_2 0
x_15_18_1_0 0
x_15_18_1_1 0
x_15_18_1_2 0
x_15_19_0_0 0
x_15_19_0_1 0
x_15_19_0_2 0
x_15_19_1_0 0
x_15_19_1_1 0
x_15_19_1_2 0
x_15_20_0_0 0
x_15_20_0_1 0
x_15_20_0_2 0
x_15_20_1_0 0
x_15_20_1_1 0
x_15_20_1_2 0
x_16_17_0_0 0
x_16_17_0_1 0
x_16_17_0_2 0
x_16_17_1_0 0
x_16_17_1_1 0
x_16_17_1_2 0
x_16_18_0_0 0
x_16_18_0_1 0
x_16_18_0_2 0
x_16_18_1_0 0
x_16_18_1_1 0
x_16_18_1_2 0
x_16_19_0_0 0
x_16_19_0_1 0
x_16_19_0_2 0
x_16_19_1_0 0
x_16_19_1_1 0
x_16_19_1_2 1.7606749391774201e-13
x_16_20_0_0 0
x_16_20_0_1 1
x_16_20_0_2 0
x_16_20_1_0 0
x_16_20_1_1 0
x_16_20_1_2 0
x_17_18_0_0 0
x_17_18_0_1 0
x_17_18_0_2 0
x_17_18_1_0 0
x_17_18_1_1 0
x_17_18_1_2 0
x_17_19_0_0 0
x_17_19_0_1 0
x_17_19_0_2 0
x_17_19_1_0 0
x_17_19_1_1 0
x_17_19_1_2 0
x_17_20_0_0 0
x_17_20_0_1 0
x_17_20_0_2 0
x_17_20_1_0 0
x_17_20_1_1 0
x_17_20_1_2 0
x_18_19_0_0 1.0000000000000198e+00
x_18_19_0_1 0
x_18_19_0_2 0
x_18_19_1_0 0
x_18_19_1_1 0
x_18_19_1_2 0
x_18_20_0_0 0
x_18_20_0_1 0
x_18_20_0_2 0
x_18_20_1_0 0
x_18_20_1_1 0
x_18_20_1_2 0
x_19_20_0_0 0
x_19_20_0_1 0
x_19_20_0_2 0
x_19_20_1_0 0
x_19_20_1_1 0
x_19_20_1_2 0
